c n orig vars 126
p cnf 128 434
1 2 -127 0
3 4 -127 0
5 6 -127 0
7 8 -127 0
9 10 -127 0
11 12 -127 0
13 14 -127 0
15 16 -127 0
17 18 -127 0
19 20 -127 0
21 22 -127 0
23 24 -127 0
25 26 -127 0
27 28 -127 0
29 30 -127 0
31 32 -127 0
33 34 -127 0
35 36 -127 0
37 47 57 67 77 87 97 107 117 -128 0
38 48 58 68 78 88 98 108 118 -128 0
39 49 59 69 79 89 99 109 119 -128 0
40 50 60 70 80 90 100 110 120 -128 0
41 51 61 71 81 91 101 111 121 -128 0
42 52 62 72 82 92 102 112 122 -128 0
43 53 63 73 83 93 103 113 123 -128 0
44 54 64 74 84 94 104 114 124 -128 0
45 55 65 75 85 95 105 115 125 -128 0
46 56 66 76 86 96 106 116 126 -128 0
-37 -38 -128 0
-37 -39 -128 0
-37 -40 -128 0
-37 -41 -128 0
-37 -42 -128 0
-37 -43 -128 0
-37 -44 -128 0
-37 -45 -128 0
-37 -46 -128 0
-38 -39 -128 0
-38 -40 -128 0
-38 -41 -128 0
-38 -42 -128 0
-38 -43 -128 0
-38 -44 -128 0
-38 -45 -128 0
-38 -46 -128 0
-39 -40 -128 0
-39 -41 -128 0
-39 -42 -128 0
-39 -43 -128 0
-39 -44 -128 0
-39 -45 -128 0
-39 -46 -128 0
-40 -41 -128 0
-40 -42 -128 0
-40 -43 -128 0
-40 -44 -128 0
-40 -45 -128 0
-40 -46 -128 0
-41 -42 -128 0
-41 -43 -128 0
-41 -44 -128 0
-41 -45 -128 0
-41 -46 -128 0
-42 -43 -128 0
-42 -44 -128 0
-42 -45 -128 0
-42 -46 -128 0
-43 -44 -128 0
-43 -45 -128 0
-43 -46 -128 0
-44 -45 -128 0
-44 -46 -128 0
-45 -46 -128 0
-47 -48 -128 0
-47 -49 -128 0
-47 -50 -128 0
-47 -51 -128 0
-47 -52 -128 0
-47 -53 -128 0
-47 -54 -128 0
-47 -55 -128 0
-47 -56 -128 0
-48 -49 -128 0
-48 -50 -128 0
-48 -51 -128 0
-48 -52 -128 0
-48 -53 -128 0
-48 -54 -128 0
-48 -55 -128 0
-48 -56 -128 0
-49 -50 -128 0
-49 -51 -128 0
-49 -52 -128 0
-49 -53 -128 0
-49 -54 -128 0
-49 -55 -128 0
-49 -56 -128 0
-50 -51 -128 0
-50 -52 -128 0
-50 -53 -128 0
-50 -54 -128 0
-50 -55 -128 0
-50 -56 -128 0
-51 -52 -128 0
-51 -53 -128 0
-51 -54 -128 0
-51 -55 -128 0
-51 -56 -128 0
-52 -53 -128 0
-52 -54 -128 0
-52 -55 -128 0
-52 -56 -128 0
-53 -54 -128 0
-53 -55 -128 0
-53 -56 -128 0
-54 -55 -128 0
-54 -56 -128 0
-55 -56 -128 0
-57 -58 -128 0
-57 -59 -128 0
-57 -60 -128 0
-57 -61 -128 0
-57 -62 -128 0
-57 -63 -128 0
-57 -64 -128 0
-57 -65 -128 0
-57 -66 -128 0
-58 -59 -128 0
-58 -60 -128 0
-58 -61 -128 0
-58 -62 -128 0
-58 -63 -128 0
-58 -64 -128 0
-58 -65 -128 0
-58 -66 -128 0
-59 -60 -128 0
-59 -61 -128 0
-59 -62 -128 0
-59 -63 -128 0
-59 -64 -128 0
-59 -65 -128 0
-59 -66 -128 0
-60 -61 -128 0
-60 -62 -128 0
-60 -63 -128 0
-60 -64 -128 0
-60 -65 -128 0
-60 -66 -128 0
-61 -62 -128 0
-61 -63 -128 0
-61 -64 -128 0
-61 -65 -128 0
-61 -66 -128 0
-62 -63 -128 0
-62 -64 -128 0
-62 -65 -128 0
-62 -66 -128 0
-63 -64 -128 0
-63 -65 -128 0
-63 -66 -128 0
-64 -65 -128 0
-64 -66 -128 0
-65 -66 -128 0
-67 -68 -128 0
-67 -69 -128 0
-67 -70 -128 0
-67 -71 -128 0
-67 -72 -128 0
-67 -73 -128 0
-67 -74 -128 0
-67 -75 -128 0
-67 -76 -128 0
-68 -69 -128 0
-68 -70 -128 0
-68 -71 -128 0
-68 -72 -128 0
-68 -73 -128 0
-68 -74 -128 0
-68 -75 -128 0
-68 -76 -128 0
-69 -70 -128 0
-69 -71 -128 0
-69 -72 -128 0
-69 -73 -128 0
-69 -74 -128 0
-69 -75 -128 0
-69 -76 -128 0
-70 -71 -128 0
-70 -72 -128 0
-70 -73 -128 0
-70 -74 -128 0
-70 -75 -128 0
-70 -76 -128 0
-71 -72 -128 0
-71 -73 -128 0
-71 -74 -128 0
-71 -75 -128 0
-71 -76 -128 0
-72 -73 -128 0
-72 -74 -128 0
-72 -75 -128 0
-72 -76 -128 0
-73 -74 -128 0
-73 -75 -128 0
-73 -76 -128 0
-74 -75 -128 0
-74 -76 -128 0
-75 -76 -128 0
-77 -78 -128 0
-77 -79 -128 0
-77 -80 -128 0
-77 -81 -128 0
-77 -82 -128 0
-77 -83 -128 0
-77 -84 -128 0
-77 -85 -128 0
-77 -86 -128 0
-78 -79 -128 0
-78 -80 -128 0
-78 -81 -128 0
-78 -82 -128 0
-78 -83 -128 0
-78 -84 -128 0
-78 -85 -128 0
-78 -86 -128 0
-79 -80 -128 0
-79 -81 -128 0
-79 -82 -128 0
-79 -83 -128 0
-79 -84 -128 0
-79 -85 -128 0
-79 -86 -128 0
-80 -81 -128 0
-80 -82 -128 0
-80 -83 -128 0
-80 -84 -128 0
-80 -85 -128 0
-80 -86 -128 0
-81 -82 -128 0
-81 -83 -128 0
-81 -84 -128 0
-81 -85 -128 0
-81 -86 -128 0
-82 -83 -128 0
-82 -84 -128 0
-82 -85 -128 0
-82 -86 -128 0
-83 -84 -128 0
-83 -85 -128 0
-83 -86 -128 0
-84 -85 -128 0
-84 -86 -128 0
-85 -86 -128 0
-87 -88 -128 0
-87 -89 -128 0
-87 -90 -128 0
-87 -91 -128 0
-87 -92 -128 0
-87 -93 -128 0
-87 -94 -128 0
-87 -95 -128 0
-87 -96 -128 0
-88 -89 -128 0
-88 -90 -128 0
-88 -91 -128 0
-88 -92 -128 0
-88 -93 -128 0
-88 -94 -128 0
-88 -95 -128 0
-88 -96 -128 0
-89 -90 -128 0
-89 -91 -128 0
-89 -92 -128 0
-89 -93 -128 0
-89 -94 -128 0
-89 -95 -128 0
-89 -96 -128 0
-90 -91 -128 0
-90 -92 -128 0
-90 -93 -128 0
-90 -94 -128 0
-90 -95 -128 0
-90 -96 -128 0
-91 -92 -128 0
-91 -93 -128 0
-91 -94 -128 0
-91 -95 -128 0
-91 -96 -128 0
-92 -93 -128 0
-92 -94 -128 0
-92 -95 -128 0
-92 -96 -128 0
-93 -94 -128 0
-93 -95 -128 0
-93 -96 -128 0
-94 -95 -128 0
-94 -96 -128 0
-95 -96 -128 0
-97 -98 -128 0
-97 -99 -128 0
-97 -100 -128 0
-97 -101 -128 0
-97 -102 -128 0
-97 -103 -128 0
-97 -104 -128 0
-97 -105 -128 0
-97 -106 -128 0
-98 -99 -128 0
-98 -100 -128 0
-98 -101 -128 0
-98 -102 -128 0
-98 -103 -128 0
-98 -104 -128 0
-98 -105 -128 0
-98 -106 -128 0
-99 -100 -128 0
-99 -101 -128 0
-99 -102 -128 0
-99 -103 -128 0
-99 -104 -128 0
-99 -105 -128 0
-99 -106 -128 0
-100 -101 -128 0
-100 -102 -128 0
-100 -103 -128 0
-100 -104 -128 0
-100 -105 -128 0
-100 -106 -128 0
-101 -102 -128 0
-101 -103 -128 0
-101 -104 -128 0
-101 -105 -128 0
-101 -106 -128 0
-102 -103 -128 0
-102 -104 -128 0
-102 -105 -128 0
-102 -106 -128 0
-103 -104 -128 0
-103 -105 -128 0
-103 -106 -128 0
-104 -105 -128 0
-104 -106 -128 0
-105 -106 -128 0
-107 -108 -128 0
-107 -109 -128 0
-107 -110 -128 0
-107 -111 -128 0
-107 -112 -128 0
-107 -113 -128 0
-107 -114 -128 0
-107 -115 -128 0
-107 -116 -128 0
-108 -109 -128 0
-108 -110 -128 0
-108 -111 -128 0
-108 -112 -128 0
-108 -113 -128 0
-108 -114 -128 0
-108 -115 -128 0
-108 -116 -128 0
-109 -110 -128 0
-109 -111 -128 0
-109 -112 -128 0
-109 -113 -128 0
-109 -114 -128 0
-109 -115 -128 0
-109 -116 -128 0
-110 -111 -128 0
-110 -112 -128 0
-110 -113 -128 0
-110 -114 -128 0
-110 -115 -128 0
-110 -116 -128 0
-111 -112 -128 0
-111 -113 -128 0
-111 -114 -128 0
-111 -115 -128 0
-111 -116 -128 0
-112 -113 -128 0
-112 -114 -128 0
-112 -115 -128 0
-112 -116 -128 0
-113 -114 -128 0
-113 -115 -128 0
-113 -116 -128 0
-114 -115 -128 0
-114 -116 -128 0
-115 -116 -128 0
-117 -118 -128 0
-117 -119 -128 0
-117 -120 -128 0
-117 -121 -128 0
-117 -122 -128 0
-117 -123 -128 0
-117 -124 -128 0
-117 -125 -128 0
-117 -126 -128 0
-118 -119 -128 0
-118 -120 -128 0
-118 -121 -128 0
-118 -122 -128 0
-118 -123 -128 0
-118 -124 -128 0
-118 -125 -128 0
-118 -126 -128 0
-119 -120 -128 0
-119 -121 -128 0
-119 -122 -128 0
-119 -123 -128 0
-119 -124 -128 0
-119 -125 -128 0
-119 -126 -128 0
-120 -121 -128 0
-120 -122 -128 0
-120 -123 -128 0
-120 -124 -128 0
-120 -125 -128 0
-120 -126 -128 0
-121 -122 -128 0
-121 -123 -128 0
-121 -124 -128 0
-121 -125 -128 0
-121 -126 -128 0
-122 -123 -128 0
-122 -124 -128 0
-122 -125 -128 0
-122 -126 -128 0
-123 -124 -128 0
-123 -125 -128 0
-123 -126 -128 0
-124 -125 -128 0
-124 -126 -128 0
-125 -126 -128 0
127 128 0
